(set-info :smt-lib-version 2.6)
(set-logic QF_FP)
(set-option :produce-models true)
(set-info :source |Random FP created by PyMPF|)
(set-info :license |https://www.gnu.org/licenses/gpl-3.0.html|)
(set-info :category random)
(set-info :status sat)
(declare-const x Float32)
(assert (= x ((_ to_fp 8 24) #xB92F2090)))
;; x should be Float32(0xB92F2090 [Rational(-717321, 4294967296), -0.000167])

(declare-const y Float32)
(assert (= y ((_ to_fp 8 24) #xFF800000)))
;; y should be Float32(-oo)

(declare-const result Float32)
(assert (= result (fp.div RNA x y)))
(assert (= result (fp #b0 #b00000000 #b00000000000000000000000)))
(check-sat)
(exit)
